NAME: tsp25_26
COMMENT: 25-tsp problem (Padberg/Rinaldi)
TYPE: TSP
DIMENSION: 25
EDGE_WEIGHT_TYPE : EUC_2D
NODE_COORD_SECTION
1 8 20
2 15 29
3 14 6
4 15 14
5 20 37
6 19 37
7 25 34
8 30 7
9 30 31
10 3 10
11 22 39
12 30 35
13 21 38
14 6 13
15 9 17
16 16 5
17 31 22
18 37 5
19 38 11
20 19 19
21 28 40
22 19 23
23 3 9
24 33 19
25 27 22
